\* MinumumEmployeesAssignment *\
Minimize
OBJ: X0 + X1 + X10 + X11 + X12 + X13 + X14 + X15 + X16 + X17 + X18 + X19 + X2
 + X20 + X21 + X22 + X23 + X24 + X25 + X26 + X27 + X28 + X29 + X3 + X30 + X31
 + X32 + X33 + X34 + X35 + X36 + X37 + X38 + X39 + X4 + X40 + X41 + X42 + X43
 + X44 + X45 + X46 + X47 + X48 + X49 + X5 + X50 + X51 + X52 + X53 + X54 + X55
 + X56 + X57 + X58 + X59 + X6 + X60 + X61 + X62 + X63 + X64 + X65 + X66 + X67
 + X68 + X69 + X7 + X70 + X71 + X72 + X73 + X74 + X75 + X76 + X77 + X78 + X79
 + X8 + X80 + X81 + X82 + X83 + X84 + X85 + X86 + X87 + X88 + X89 + X9 + X90
 + X91 + X92 + X93 + X94 + X95
Subject To
_C1: X0 + X1 + X2 + X3 + X4 + X5 + X6 + X7 >= 44
_C10: X10 + X11 + X12 + X13 + X14 + X15 + X16 + X9 >= 51
_C11: X10 + X11 + X12 + X13 + X14 + X15 + X16 + X17 >= 28
_C12: X11 + X12 + X13 + X14 + X15 + X16 + X17 + X18 >= 31
_C13: X12 + X13 + X14 + X15 + X16 + X17 + X18 + X19 >= 47
_C14: X13 + X14 + X15 + X16 + X17 + X18 + X19 + X20 >= 42
_C15: X14 + X15 + X16 + X17 + X18 + X19 + X20 + X21 >= 7
_C16: X15 + X16 + X17 + X18 + X19 + X20 + X21 + X22 >= 0
_C17: X16 + X17 + X18 + X19 + X20 + X21 + X22 + X23 >= 8
_C18: X17 + X18 + X19 + X20 + X21 + X22 + X23 + X24 >= 35
_C19: X18 + X19 + X20 + X21 + X22 + X23 + X24 + X25 >= 48
_C2: X1 + X2 + X3 + X4 + X5 + X6 + X7 + X8 >= 14
_C20: X19 + X20 + X21 + X22 + X23 + X24 + X25 + X26 >= 34
_C21: X20 + X21 + X22 + X23 + X24 + X25 + X26 + X27 >= 30
_C22: X21 + X22 + X23 + X24 + X25 + X26 + X27 + X28 >= 9
_C23: X22 + X23 + X24 + X25 + X26 + X27 + X28 + X29 >= 20
_C24: X23 + X24 + X25 + X26 + X27 + X28 + X29 + X30 >= 42
_C25: X24 + X25 + X26 + X27 + X28 + X29 + X30 + X31 >= 18
_C26: X25 + X26 + X27 + X28 + X29 + X30 + X31 + X32 >= 19
_C27: X26 + X27 + X28 + X29 + X30 + X31 + X32 + X33 >= 40
_C28: X27 + X28 + X29 + X30 + X31 + X32 + X33 + X34 >= 28
_C29: X28 + X29 + X30 + X31 + X32 + X33 + X34 + X35 >= 27
_C3: X2 + X3 + X4 + X5 + X6 + X7 + X8 + X9 >= 29
_C30: X29 + X30 + X31 + X32 + X33 + X34 + X35 + X36 >= 13
_C31: X30 + X31 + X32 + X33 + X34 + X35 + X36 + X37 >= 5
_C32: X31 + X32 + X33 + X34 + X35 + X36 + X37 + X38 >= 32
_C33: X32 + X33 + X34 + X35 + X36 + X37 + X38 + X39 >= 42
_C34: X33 + X34 + X35 + X36 + X37 + X38 + X39 + X40 >= 19
_C35: X34 + X35 + X36 + X37 + X38 + X39 + X40 + X41 >= 38
_C36: X35 + X36 + X37 + X38 + X39 + X40 + X41 + X42 >= 1
_C37: X36 + X37 + X38 + X39 + X40 + X41 + X42 + X43 >= 1
_C38: X37 + X38 + X39 + X40 + X41 + X42 + X43 + X44 >= 20
_C39: X38 + X39 + X40 + X41 + X42 + X43 + X44 + X45 >= 19
_C4: X10 + X3 + X4 + X5 + X6 + X7 + X8 + X9 >= 0
_C40: X39 + X40 + X41 + X42 + X43 + X44 + X45 + X46 >= 49
_C41: X40 + X41 + X42 + X43 + X44 + X45 + X46 + X47 >= 48
_C42: X41 + X42 + X43 + X44 + X45 + X46 + X47 + X48 >= 15
_C43: X42 + X43 + X44 + X45 + X46 + X47 + X48 + X49 >= 42
_C44: X43 + X44 + X45 + X46 + X47 + X48 + X49 + X50 >= 21
_C45: X44 + X45 + X46 + X47 + X48 + X49 + X50 + X51 >= 32
_C46: X45 + X46 + X47 + X48 + X49 + X50 + X51 + X52 >= 31
_C47: X46 + X47 + X48 + X49 + X50 + X51 + X52 + X53 >= 15
_C48: X47 + X48 + X49 + X50 + X51 + X52 + X53 + X54 >= 1
_C49: X48 + X49 + X50 + X51 + X52 + X53 + X54 + X55 >= 1
_C5: X10 + X11 + X4 + X5 + X6 + X7 + X8 + X9 >= 50
_C50: X49 + X50 + X51 + X52 + X53 + X54 + X55 + X56 >= 23
_C51: X50 + X51 + X52 + X53 + X54 + X55 + X56 + X57 >= 28
_C52: X51 + X52 + X53 + X54 + X55 + X56 + X57 + X58 >= 32
_C53: X52 + X53 + X54 + X55 + X56 + X57 + X58 + X59 >= 35
_C54: X53 + X54 + X55 + X56 + X57 + X58 + X59 + X60 >= 8
_C55: X54 + X55 + X56 + X57 + X58 + X59 + X60 + X61 >= 28
_C56: X55 + X56 + X57 + X58 + X59 + X60 + X61 + X62 >= 17
_C57: X56 + X57 + X58 + X59 + X60 + X61 + X62 + X63 >= 25
_C58: X57 + X58 + X59 + X60 + X61 + X62 + X63 + X64 >= 7
_C59: X58 + X59 + X60 + X61 + X62 + X63 + X64 + X65 >= 46
_C6: X10 + X11 + X12 + X5 + X6 + X7 + X8 + X9 >= 15
_C60: X59 + X60 + X61 + X62 + X63 + X64 + X65 + X66 >= 43
_C61: X60 + X61 + X62 + X63 + X64 + X65 + X66 + X67 >= 37
_C62: X61 + X62 + X63 + X64 + X65 + X66 + X67 + X68 >= 48
_C63: X62 + X63 + X64 + X65 + X66 + X67 + X68 + X69 >= 1
_C64: X63 + X64 + X65 + X66 + X67 + X68 + X69 + X70 >= 44
_C65: X64 + X65 + X66 + X67 + X68 + X69 + X70 + X71 >= 27
_C66: X65 + X66 + X67 + X68 + X69 + X70 + X71 + X72 >= 19
_C67: X66 + X67 + X68 + X69 + X70 + X71 + X72 + X73 >= 46
_C68: X67 + X68 + X69 + X70 + X71 + X72 + X73 + X74 >= 42
_C69: X68 + X69 + X70 + X71 + X72 + X73 + X74 + X75 >= 8
_C7: X10 + X11 + X12 + X13 + X6 + X7 + X8 + X9 >= 46
_C70: X69 + X70 + X71 + X72 + X73 + X74 + X75 + X76 >= 4
_C71: X70 + X71 + X72 + X73 + X74 + X75 + X76 + X77 >= 11
_C72: X71 + X72 + X73 + X74 + X75 + X76 + X77 + X78 >= 49
_C73: X72 + X73 + X74 + X75 + X76 + X77 + X78 + X79 >= 48
_C74: X73 + X74 + X75 + X76 + X77 + X78 + X79 + X80 >= 12
_C75: X74 + X75 + X76 + X77 + X78 + X79 + X80 + X81 >= 20
_C76: X75 + X76 + X77 + X78 + X79 + X80 + X81 + X82 >= 35
_C77: X76 + X77 + X78 + X79 + X80 + X81 + X82 + X83 >= 18
_C78: X77 + X78 + X79 + X80 + X81 + X82 + X83 + X84 >= 19
_C79: X78 + X79 + X80 + X81 + X82 + X83 + X84 + X85 >= 10
_C8: X10 + X11 + X12 + X13 + X14 + X7 + X8 + X9 >= 23
_C80: X79 + X80 + X81 + X82 + X83 + X84 + X85 + X86 >= 35
_C81: X80 + X81 + X82 + X83 + X84 + X85 + X86 + X87 >= 34
_C82: X81 + X82 + X83 + X84 + X85 + X86 + X87 + X88 >= 42
_C83: X82 + X83 + X84 + X85 + X86 + X87 + X88 + X89 >= 46
_C84: X83 + X84 + X85 + X86 + X87 + X88 + X89 + X90 >= 18
_C85: X84 + X85 + X86 + X87 + X88 + X89 + X90 + X91 >= 25
_C86: X85 + X86 + X87 + X88 + X89 + X90 + X91 + X92 >= 6
_C87: X86 + X87 + X88 + X89 + X90 + X91 + X92 + X93 >= 29
_C88: X87 + X88 + X89 + X90 + X91 + X92 + X93 + X94 >= 31
_C89: X88 + X89 + X90 + X91 + X92 + X93 + X94 + X95 >= 34
_C9: X10 + X11 + X12 + X13 + X14 + X15 + X8 + X9 >= 0
_C90: X0 + X1 + X10 + X11 + X12 + X13 + X14 + X15 + X16 + X17 + X18 + X19 + X2
 + X20 + X21 + X22 + X23 + X24 + X25 + X26 + X27 + X28 + X29 + X3 + X30 + X31
 + X32 + X33 + X34 + X35 + X36 + X37 + X38 + X39 + X4 + X40 + X41 + X42 + X43
 + X44 + X45 + X46 + X47 + X48 + X49 + X5 + X50 + X51 + X52 + X53 + X54 + X55
 + X56 + X57 + X58 + X59 + X6 + X60 + X61 + X62 + X63 + X64 + X65 + X66 + X67
 + X68 + X69 + X7 + X70 + X71 + X72 + X73 + X74 + X75 + X76 + X77 + X78 + X79
 + X8 + X80 + X81 + X82 + X83 + X84 + X85 + X86 + X87 + X88 + X89 + X9 + X90
 + X91 + X92 + X93 + X94 + X95 <= 2505
Bounds
0 <= X0
0 <= X1
0 <= X10
0 <= X11
0 <= X12
0 <= X13
0 <= X14
0 <= X15
0 <= X16
0 <= X17
0 <= X18
0 <= X19
0 <= X2
0 <= X20
0 <= X21
0 <= X22
0 <= X23
0 <= X24
0 <= X25
0 <= X26
0 <= X27
0 <= X28
0 <= X29
0 <= X3
0 <= X30
0 <= X31
0 <= X32
0 <= X33
0 <= X34
0 <= X35
0 <= X36
0 <= X37
0 <= X38
0 <= X39
0 <= X4
0 <= X40
0 <= X41
0 <= X42
0 <= X43
0 <= X44
0 <= X45
0 <= X46
0 <= X47
0 <= X48
0 <= X49
0 <= X5
0 <= X50
0 <= X51
0 <= X52
0 <= X53
0 <= X54
0 <= X55
0 <= X56
0 <= X57
0 <= X58
0 <= X59
0 <= X6
0 <= X60
0 <= X61
0 <= X62
0 <= X63
0 <= X64
0 <= X65
0 <= X66
0 <= X67
0 <= X68
0 <= X69
0 <= X7
0 <= X70
0 <= X71
0 <= X72
0 <= X73
0 <= X74
0 <= X75
0 <= X76
0 <= X77
0 <= X78
0 <= X79
0 <= X8
0 <= X80
0 <= X81
0 <= X82
0 <= X83
0 <= X84
0 <= X85
0 <= X86
0 <= X87
0 <= X88
0 <= X89
0 <= X9
0 <= X90
0 <= X91
0 <= X92
0 <= X93
0 <= X94
0 <= X95
Generals
X0
X1
X10
X11
X12
X13
X14
X15
X16
X17
X18
X19
X2
X20
X21
X22
X23
X24
X25
X26
X27
X28
X29
X3
X30
X31
X32
X33
X34
X35
X36
X37
X38
X39
X4
X40
X41
X42
X43
X44
X45
X46
X47
X48
X49
X5
X50
X51
X52
X53
X54
X55
X56
X57
X58
X59
X6
X60
X61
X62
X63
X64
X65
X66
X67
X68
X69
X7
X70
X71
X72
X73
X74
X75
X76
X77
X78
X79
X8
X80
X81
X82
X83
X84
X85
X86
X87
X88
X89
X9
X90
X91
X92
X93
X94
X95
End
